
nNurses = 114;
hours = 43;
demand = [12 22 19 3 15 7 21 10 6 0 28 3 7 26 1 11 12 19 22 27 9 2 6 0 7 17 25 2 7 25 16 11 2 1 6 17 1 14 23 0 8 11 17];
minHours = 8;
maxHours = 23;
maxConsec = 11;
maxPresence = 36;